solution status: time limit reached
objective value:                                   70
thingy.thingy.chamber[4].first.vring_in_y                   10 	(obj:0)
thingy.thingy.chamber[4].first.vring_in_z                   16 	(obj:0)
thingy.thingy.prep.vout2_y                         13 	(obj:0)
thingy.thingy.prep.vout2_z                         20 	(obj:0)
thingy.thingy.chamber[8].first.vring_in_y                    9 	(obj:0)
thingy.thingy.chamber[8].first.vring_in_z                   17 	(obj:0)
thingy.ring_outlet_pinholes[5].hole_y                    7 	(obj:0)
thingy.ring_outlet_pinholes[5].hole_z                   20 	(obj:0)
thingy.flush_pump_pinholes[2].hole_y                    5 	(obj:0)
thingy.flush_pump_pinholes[2].hole_z                   15 	(obj:0)
thingy.ring_outlet_pinholes[3].hole_y                    5 	(obj:0)
thingy.ring_outlet_pinholes[3].hole_z                   13 	(obj:0)
thingy.ring_outlet_pinholes[8].hole_y                    5 	(obj:0)
thingy.ring_outlet_pinholes[8].hole_z                   22 	(obj:0)
thingy.thingy.chamber[9].first.vring_in_y                    9 	(obj:0)
thingy.thingy.chamber[9].first.vring_in_z                   19 	(obj:0)
thingy.ring_outlet_pinholes[9].hole_y                    4 	(obj:0)
thingy.ring_outlet_pinholes[9].hole_z                   13 	(obj:0)
thingy.flush_stage_outlet_hole_y                    3 	(obj:0)
thingy.flush_stage_outlet_hole_z                   13 	(obj:0)
thingy.thingy.chamber[8].first.vsieve_y                    4 	(obj:0)
thingy.thingy.chamber[8].first.vsieve_z                   17 	(obj:0)
thingy.ctrl_v2_hole_y                              13 	(obj:0)
thingy.ctrl_v2_hole_z                              17 	(obj:0)
thingy.thingy.chamber[5].first.vsieve_y                    3 	(obj:0)
thingy.thingy.chamber[5].first.vsieve_z                   18 	(obj:0)
thingy.thingy.chamber[7].first.vsieve_y                    5 	(obj:0)
thingy.thingy.chamber[7].first.vsieve_z                   18 	(obj:0)
thingy.thingy.chamber[7].first.vring_in_y                    9 	(obj:0)
thingy.thingy.chamber[7].first.vring_in_z                   16 	(obj:0)
thingy.thingy.prep.sv1_y                           12 	(obj:0)
thingy.thingy.prep.sv1_z                           18 	(obj:0)
thingy.thingy.chamber[2].first.vsieve_y                    5 	(obj:0)
thingy.thingy.chamber[2].first.vsieve_z                   19 	(obj:0)
thingy.flush_v1_hole_y                             15 	(obj:0)
thingy.flush_v1_hole_z                             17 	(obj:0)
thingy.prep_outlet_pinholes[0].hole_y                   18 	(obj:0)
thingy.prep_outlet_pinholes[0].hole_z                   23 	(obj:0)
thingy.thingy.chamber[1].first.vsieve_y                    9 	(obj:0)
thingy.thingy.chamber[1].first.vsieve_z                   18 	(obj:0)
thingy.ring_outlet_pinholes[2].hole_y                    5 	(obj:0)
thingy.ring_outlet_pinholes[2].hole_z                   10 	(obj:0)
thingy.thingy.chamber[6].first.vring_in_y                    8 	(obj:0)
thingy.thingy.chamber[6].first.vring_in_z                   15 	(obj:0)
thingy.thingy.chamber[1].first.vring_in_y                   10 	(obj:0)
thingy.thingy.chamber[1].first.vring_in_z                   18 	(obj:0)
thingy.thingy.chamber[2].first.vring_in_y                    8 	(obj:0)
thingy.thingy.chamber[2].first.vring_in_z                   16 	(obj:0)
thingy.ctrl_stage_outlet_hole_y                     7 	(obj:0)
thingy.ctrl_stage_outlet_hole_z                    13 	(obj:0)
thingy.flush_prep_outlet_pinholes[0].hole_y                   16 	(obj:0)
thingy.flush_prep_outlet_pinholes[0].hole_z                   19 	(obj:0)
thingy.ring_outlet_pinholes[7].hole_y                    3 	(obj:0)
thingy.ring_outlet_pinholes[7].hole_z                   10 	(obj:0)
thingy.ctrl_v1_hole_y                              14 	(obj:0)
thingy.ctrl_v1_hole_z                              17 	(obj:0)
thingy.thingy.chamber[3].first.vring_in_y                   10 	(obj:0)
thingy.thingy.chamber[3].first.vring_in_z                   15 	(obj:0)
thingy.pump_pinholes[2].hole_y                     12 	(obj:0)
thingy.pump_pinholes[2].hole_z                     15 	(obj:0)
thingy.flush_stage_out_hole_y                       4 	(obj:0)
thingy.flush_stage_out_hole_z                      14 	(obj:0)
thingy.ctrl_prep_outlet_pinholes[0].hole_y                   15 	(obj:0)
thingy.ctrl_prep_outlet_pinholes[0].hole_z                   21 	(obj:0)
thingy.thingy.chamber[5].first.vring_in_y                    8 	(obj:0)
thingy.thingy.chamber[5].first.vring_in_z                   17 	(obj:0)
thingy.thingy.chamber[0].first.vring_in_y                   12 	(obj:0)
thingy.thingy.chamber[0].first.vring_in_z                   17 	(obj:0)
thingy.ring_outlet_pinholes[0].hole_y                   10 	(obj:0)
thingy.ring_outlet_pinholes[0].hole_z                   13 	(obj:0)
thingy.thingy.chamber[3].first.vsieve_y                    4 	(obj:0)
thingy.thingy.chamber[3].first.vsieve_z                   19 	(obj:0)
thingy.thingy.chamber[6].first.vsieve_y                    6 	(obj:0)
thingy.thingy.chamber[6].first.vsieve_z                   18 	(obj:0)
thingy.ctrl_stage_out_hole_y                        9 	(obj:0)
thingy.ctrl_stage_out_hole_z                       15 	(obj:0)
thingy.thingy.chamber[0].first.vsieve_y                   13 	(obj:0)
thingy.thingy.chamber[0].first.vsieve_z                   19 	(obj:0)
thingy.ring_outlet_pinholes[6].hole_y                   12 	(obj:0)
thingy.ring_outlet_pinholes[6].hole_z                   21 	(obj:0)
thingy.thingy.prep.ring_y                          12 	(obj:0)
thingy.thingy.prep.ring_z                          19 	(obj:0)
thingy.thingy.chamber[4].first.vsieve_y                    4 	(obj:0)
thingy.thingy.chamber[4].first.vsieve_z                   20 	(obj:0)
thingy.flush_v2_hole_y                             14 	(obj:0)
thingy.flush_v2_hole_z                             18 	(obj:0)
thingy.ring_outlet_pinholes[4].hole_y                   10 	(obj:0)
thingy.ring_outlet_pinholes[4].hole_z                   22 	(obj:0)
thingy.thingy.chamber[9].first.vsieve_y                    4 	(obj:0)
thingy.thingy.chamber[9].first.vsieve_z                   18 	(obj:0)
thingy.ring_outlet_pinholes[1].hole_y                    4 	(obj:0)
thingy.ring_outlet_pinholes[1].hole_z                   22 	(obj:0)
x94                                                 1 	(obj:1)
x95                                                 2 	(obj:1)
x98                                                 1 	(obj:1)
x104                                                2 	(obj:1)
x106                                                1 	(obj:1)
x107                                                1 	(obj:1)
x109                                                1 	(obj:1)
x119                                                1 	(obj:1)
x120                                                2 	(obj:1)
x123                                                1 	(obj:1)
x134                                                2 	(obj:1)
x142                                                1 	(obj:1)
x147                                                1 	(obj:1)
x148                                                2 	(obj:1)
x150                                                1 	(obj:1)
x153                                                1 	(obj:1)
x154                                                1 	(obj:1)
x157                                                2 	(obj:1)
x160                                                1 	(obj:1)
x166                                                2 	(obj:1)
x169                                                2 	(obj:1)
x173                                                2 	(obj:1)
x176                                                2 	(obj:1)
x183                                                2 	(obj:1)
x184                                                2 	(obj:1)
x186                                                1 	(obj:1)
x187                                                2 	(obj:1)
x188                                                2 	(obj:1)
x194                                                1 	(obj:1)
x195                                                2 	(obj:1)
x196                                                1 	(obj:1)
x210                                                2 	(obj:1)
x220                                                2 	(obj:1)
x221                                                2 	(obj:1)
x223                                                2 	(obj:1)
x224                                                2 	(obj:1)
x236                                                2 	(obj:1)
x237                                                2 	(obj:1)
x242                                                2 	(obj:1)
x247                                                2 	(obj:1)
x248                                                1 	(obj:1)
x250                                                1 	(obj:1)
x258                                                1 	(obj:1)
x260                                                1 	(obj:1)
x270                                                2 	(obj:1)
